NAME: ../File/prFile/tspFile/tsp_file24.tsp
COMMENT: TSP file generated by Python
TYPE: TSP
DIMENSION: 30
EDGE_WEIGHT_TYPE: EUC_2D
NODE_COORD_SECTION
1 88 44
2 88 22
3 42 6
4 8 45
5 33 88
6 63 31
7 49 71
8 93 63
9 96 30
10 37 56
11 49 50
12 10 30
13 34 70
14 43 14
15 39 53
16 87 91
17 98 62
18 27 68
19 92 29
20 63 13
21 19 59
22 47 87
23 47 63
24 38 41
25 50 32
26 73 42
27 51 5
28 34 4
29 91 3
30 71 98
EOF
